c *********************************
c * Circuit generated by BenCGen
c *
c * CarrySkipAdder_3_3_3_InOut_G4T
c *
c * Ports with 1 gate(s): 3
c * Ports with 2 gate(s): 18
c * Ports with 3 gate(s): 1
c * Total gates: 22
c *********************************
p cnf 28 70
1 12 0
-1 -12 0
1 -11 0
12 -11 0
-1 -12 11 0
1 4 -15 0
-1 4 15 0
1 -4 15 0
-1 -4 -15 0
15 11 -7 0
-15 11 7 0
15 -11 7 0
-15 -11 -7 0
11 -16 0
15 -16 0
-11 -15 16 0
4 -17 0
1 -17 0
-4 -1 17 0
-16 14 0
-17 14 0
16 17 -14 0
2 5 -19 0
-2 5 19 0
2 -5 19 0
-2 -5 -19 0
19 14 -8 0
-19 14 8 0
19 -14 8 0
-19 -14 -8 0
14 -20 0
19 -20 0
-14 -19 20 0
5 -21 0
2 -21 0
-5 -2 21 0
-20 18 0
-21 18 0
20 21 -18 0
3 6 -22 0
-3 6 22 0
3 -6 22 0
-3 -6 -22 0
22 18 -9 0
-22 18 9 0
22 -18 9 0
-22 -18 -9 0
18 -23 0
22 -23 0
-18 -22 23 0
6 -24 0
3 -24 0
-6 -3 24 0
-23 13 0
-24 13 0
23 24 -13 0
15 -25 0
19 -25 0
22 -25 0
-15 -19 -22 25 0
24 -26 0
-24 26 0
11 -27 0
25 -27 0
-11 -25 27 0
-27 28 0
-13 28 0
27 13 -28 0
28 -10 0
-28 10 0
